% Logging successfully configured
%%%mzn-stat: initTime=0.067522055
%%%mzn-stat: objective=758
%%%mzn-stat: nodes=3751
%%%mzn-stat: restarts=0
%%%mzn-stat: peakDepth=3355
%%%mzn-stat: solveTime=0.130068333
%%%mzn-stat: variables=4230
%%%mzn-stat: propagators=14920
%%%mzn-stat: failures=230
%%%mzn-stat: propagations=311368
%%%mzn-stat: nogoods=230
%%%mzn-stat: numAtomicConstraintsPropagated=0
%%%mzn-stat: circuitNumber11176PropagationsThatFoundConflict=102
%%%mzn-stat: circuitNumber11176TotalFixedEdgesAtConflict=14413
%%%mzn-stat: circuitNumber11176NumberOfConflicts=102
%%%mzn-stat: circuitNumber11176PropagationsThatPruned=146
%%%mzn-stat: circuitNumber11176PropagationsTotal=734
%%%mzn-stat: AverageConflictSize=8.68695652173913
%%%mzn-stat: NumUnitNogoodsLearned=0
%%%mzn-stat: AverageLearnedNogoodLength=22.721739130434784
%%%mzn-stat: AverageBacktrackAmount=0
%%%mzn-stat: AverageLbd=15.060869565217391
%%%mzn-stat: 2AutonomousSearchNumBackupCalled=3222
%%%mzn-stat: 2AutonomousSearchNumPredicatesRemoved=0
%%%mzn-stat: 2AutonomousSearchNumCalls=3223
%%%mzn-stat: 2AutonomousSearchNumPredicatesAdded=1824
%%%mzn-stat: 2AutonomousSearchAverageSizeOfHeap=0.5659323611542042
%%%mzn-stat: 2AutonomousSearchNumAssignedPredicatesEncountered=1824
%%%mzn-stat-end
maxleg = 758;
succ = array1d(1..150,[21, 4, 6, 10, 13, 5, 3, 26, 7, 14, 9, 20, 16, 27, 18, 19, 28, 17, 33, 22, 11, 29, 40, 15, 30, 25, 37, 12, 38, 31, 32, 35, 52, 1, 41, 24, 50, 39, 49, 42, 61, 44, 36, 47, 34, 8, 64, 45, 53, 51, 55, 2, 56, 23, 75, 58, 43, 59, 68, 46, 54, 48, 57, 74, 80, 71, 60, 78, 62, 67, 73, 82, 87, 66, 76, 81, 70, 77, 63, 84, 93, 88, 69, 86, 90, 85, 99, 102, 79, 83, 89, 91, 94, 96, 112, 106, 92, 104, 100, 105, 97, 110, 65, 109, 107, 114, 113, 115, 123, 111, 120, 116, 121, 133, 124, 119, 101, 130, 128, 103, 118, 117, 148, 149, 122, 131, 108, 126, 127, 141, 143, 134, 136, 135, 145, 125, 132, 98, 95, 137, 146, 144, 140, 129, 138, 147, 139, 150, 72, 142]);
% time elapsed: 4.34 s
----------
%%%mzn-stat: initTime=0.067522055
%%%mzn-stat: objective=332
%%%mzn-stat: nodes=9984
%%%mzn-stat: restarts=0
%%%mzn-stat: peakDepth=3355
%%%mzn-stat: solveTime=3.630451656
%%%mzn-stat: variables=4230
%%%mzn-stat: propagators=14920
%%%mzn-stat: failures=2978
%%%mzn-stat: propagations=3133986
%%%mzn-stat: nogoods=2978
%%%mzn-stat: numAtomicConstraintsPropagated=0
%%%mzn-stat: circuitNumber11176PropagationsThatFoundConflict=2082
%%%mzn-stat: circuitNumber11176TotalFixedEdgesAtConflict=300461
%%%mzn-stat: circuitNumber11176NumberOfConflicts=2082
%%%mzn-stat: circuitNumber11176PropagationsThatPruned=1614
%%%mzn-stat: circuitNumber11176PropagationsTotal=7080
%%%mzn-stat: AverageConflictSize=57.360644728005376
%%%mzn-stat: NumUnitNogoodsLearned=0
%%%mzn-stat: AverageLearnedNogoodLength=81.88415043653458
%%%mzn-stat: AverageBacktrackAmount=0
%%%mzn-stat: AverageLbd=68.82672934855607
%%%mzn-stat: 2AutonomousSearchNumBackupCalled=6375
%%%mzn-stat: 2AutonomousSearchNumPredicatesRemoved=0
%%%mzn-stat: 2AutonomousSearchNumCalls=6377
%%%mzn-stat: 2AutonomousSearchNumPredicatesAdded=4497
%%%mzn-stat: 2AutonomousSearchAverageSizeOfHeap=0.7098949349223773
%%%mzn-stat: 2AutonomousSearchNumAssignedPredicatesEncountered=4527
%%%mzn-stat-end
maxleg = 332;
succ = array1d(1..150,[21, 4, 6, 10, 13, 5, 3, 26, 7, 14, 9, 20, 16, 27, 18, 19, 28, 17, 33, 22, 11, 29, 40, 15, 30, 25, 37, 12, 38, 31, 32, 35, 52, 1, 41, 24, 50, 39, 49, 42, 61, 44, 36, 47, 34, 8, 64, 45, 53, 51, 55, 2, 56, 23, 75, 58, 43, 59, 68, 46, 54, 48, 57, 74, 80, 71, 60, 78, 62, 67, 73, 82, 87, 66, 76, 81, 70, 77, 63, 84, 93, 88, 69, 86, 90, 85, 99, 102, 79, 83, 89, 91, 94, 96, 112, 106, 92, 104, 100, 105, 97, 110, 65, 109, 107, 114, 113, 115, 123, 111, 120, 116, 121, 133, 124, 119, 101, 130, 139, 103, 118, 117, 132, 149, 122, 143, 108, 141, 127, 95, 128, 134, 136, 135, 145, 125, 140, 137, 126, 131, 146, 144, 98, 129, 138, 147, 148, 150, 72, 142]);
% time elapsed: 7.85 s
----------
%%%mzn-stat: initTime=0.067522055
%%%mzn-stat: objective=316
%%%mzn-stat: nodes=15713
%%%mzn-stat: restarts=0
%%%mzn-stat: peakDepth=3355
%%%mzn-stat: solveTime=6.891218919
%%%mzn-stat: variables=4230
%%%mzn-stat: propagators=14920
%%%mzn-stat: failures=5358
%%%mzn-stat: propagations=5615286
%%%mzn-stat: nogoods=5358
%%%mzn-stat: numAtomicConstraintsPropagated=0
%%%mzn-stat: circuitNumber11176PropagationsThatFoundConflict=4038
%%%mzn-stat: circuitNumber11176TotalFixedEdgesAtConflict=582931
%%%mzn-stat: circuitNumber11176NumberOfConflicts=4038
%%%mzn-stat: circuitNumber11176PropagationsThatPruned=2712
%%%mzn-stat: circuitNumber11176PropagationsTotal=12595
%%%mzn-stat: AverageConflictSize=61.804964539007095
%%%mzn-stat: NumUnitNogoodsLearned=0
%%%mzn-stat: AverageLearnedNogoodLength=86.34061216871967
%%%mzn-stat: AverageBacktrackAmount=0
%%%mzn-stat: AverageLbd=73.04628592758492
%%%mzn-stat: 2AutonomousSearchNumBackupCalled=9540
%%%mzn-stat: 2AutonomousSearchNumPredicatesRemoved=0
%%%mzn-stat: 2AutonomousSearchNumCalls=9543
%%%mzn-stat: 2AutonomousSearchNumPredicatesAdded=6993
%%%mzn-stat: 2AutonomousSearchAverageSizeOfHeap=0.758252121974222
%%%mzn-stat: 2AutonomousSearchNumAssignedPredicatesEncountered=7236
%%%mzn-stat-end
maxleg = 316;
succ = array1d(1..150,[21, 4, 6, 10, 13, 5, 3, 26, 7, 14, 23, 20, 16, 27, 18, 19, 28, 17, 33, 22, 11, 29, 9, 15, 30, 25, 37, 12, 38, 31, 32, 35, 52, 1, 41, 24, 50, 39, 49, 42, 61, 44, 36, 47, 34, 8, 64, 45, 53, 51, 55, 2, 56, 40, 75, 58, 43, 59, 68, 46, 54, 48, 57, 74, 80, 71, 60, 78, 62, 67, 73, 82, 87, 66, 76, 81, 70, 77, 63, 84, 93, 88, 69, 86, 90, 85, 99, 102, 79, 83, 89, 91, 94, 96, 112, 106, 92, 104, 100, 105, 97, 110, 65, 109, 107, 114, 113, 115, 123, 111, 120, 116, 121, 133, 124, 119, 101, 130, 139, 103, 118, 117, 132, 149, 122, 143, 108, 141, 127, 95, 128, 134, 136, 135, 145, 125, 140, 137, 126, 131, 146, 144, 98, 129, 138, 147, 148, 150, 72, 142]);
% time elapsed: 11.13 s
----------
%%%mzn-stat: initTime=0.067522055
%%%mzn-stat: objective=315
%%%mzn-stat: nodes=19034
%%%mzn-stat: restarts=0
%%%mzn-stat: peakDepth=3355
%%%mzn-stat: solveTime=6.938837313
%%%mzn-stat: variables=4230
%%%mzn-stat: propagators=14920
%%%mzn-stat: failures=5395
%%%mzn-stat: propagations=5692495
%%%mzn-stat: nogoods=5395
%%%mzn-stat: numAtomicConstraintsPropagated=0
%%%mzn-stat: circuitNumber11176PropagationsThatFoundConflict=4054
%%%mzn-stat: circuitNumber11176TotalFixedEdgesAtConflict=585240
%%%mzn-stat: circuitNumber11176NumberOfConflicts=4054
%%%mzn-stat: circuitNumber11176PropagationsThatPruned=2733
%%%mzn-stat: circuitNumber11176PropagationsTotal=12816
%%%mzn-stat: AverageConflictSize=61.57979610750695
%%%mzn-stat: NumUnitNogoodsLearned=0
%%%mzn-stat: AverageLearnedNogoodLength=86.07914735866544
%%%mzn-stat: AverageBacktrackAmount=0
%%%mzn-stat: AverageLbd=72.77571825764596
%%%mzn-stat: 2AutonomousSearchNumBackupCalled=12665
%%%mzn-stat: 2AutonomousSearchNumPredicatesRemoved=0
%%%mzn-stat: 2AutonomousSearchNumCalls=12669
%%%mzn-stat: 2AutonomousSearchNumPredicatesAdded=8115
%%%mzn-stat: 2AutonomousSearchAverageSizeOfHeap=0.7852237745678428
%%%mzn-stat: 2AutonomousSearchNumAssignedPredicatesEncountered=9948
%%%mzn-stat-end
maxleg = 315;
succ = array1d(1..150,[21, 4, 6, 10, 13, 5, 3, 26, 7, 14, 23, 20, 16, 27, 18, 19, 28, 17, 33, 22, 11, 29, 9, 15, 30, 25, 37, 12, 38, 31, 32, 35, 52, 1, 41, 24, 50, 39, 49, 42, 61, 44, 36, 47, 34, 8, 64, 45, 53, 51, 55, 2, 56, 40, 75, 58, 43, 59, 68, 46, 54, 48, 57, 74, 80, 71, 60, 78, 62, 67, 73, 82, 87, 66, 76, 81, 70, 77, 63, 84, 93, 88, 69, 86, 90, 85, 99, 102, 79, 83, 89, 91, 94, 96, 112, 106, 92, 104, 100, 105, 97, 110, 65, 109, 107, 114, 113, 115, 123, 111, 120, 116, 121, 133, 124, 119, 101, 130, 139, 103, 118, 117, 138, 149, 122, 143, 108, 141, 127, 95, 128, 134, 136, 135, 145, 125, 132, 137, 126, 131, 146, 144, 98, 129, 140, 147, 148, 150, 72, 142]);
% time elapsed: 11.19 s
----------
%%%mzn-stat: initTime=0.067522055
%%%mzn-stat: objective=307
%%%mzn-stat: nodes=22293
%%%mzn-stat: restarts=0
%%%mzn-stat: peakDepth=3355
%%%mzn-stat: solveTime=6.955339515
%%%mzn-stat: variables=4230
%%%mzn-stat: propagators=14920
%%%mzn-stat: failures=5401
%%%mzn-stat: propagations=5723468
%%%mzn-stat: nogoods=5401
%%%mzn-stat: numAtomicConstraintsPropagated=0
%%%mzn-stat: circuitNumber11176PropagationsThatFoundConflict=4054
%%%mzn-stat: circuitNumber11176TotalFixedEdgesAtConflict=585240
%%%mzn-stat: circuitNumber11176NumberOfConflicts=4054
%%%mzn-stat: circuitNumber11176PropagationsThatPruned=2736
%%%mzn-stat: circuitNumber11176PropagationsTotal=12954
%%%mzn-stat: AverageConflictSize=61.55619329753749
%%%mzn-stat: NumUnitNogoodsLearned=0
%%%mzn-stat: AverageLearnedNogoodLength=86.03888168857618
%%%mzn-stat: AverageBacktrackAmount=0
%%%mzn-stat: AverageLbd=72.72190335123125
%%%mzn-stat: 2AutonomousSearchNumBackupCalled=15787
%%%mzn-stat: 2AutonomousSearchNumPredicatesRemoved=0
%%%mzn-stat: 2AutonomousSearchNumCalls=15792
%%%mzn-stat: 2AutonomousSearchNumPredicatesAdded=8249
%%%mzn-stat: 2AutonomousSearchAverageSizeOfHeap=0.8016717325227963
%%%mzn-stat: 2AutonomousSearchNumAssignedPredicatesEncountered=12660
%%%mzn-stat-end
maxleg = 307;
succ = array1d(1..150,[21, 4, 6, 10, 13, 5, 3, 26, 7, 14, 23, 20, 16, 27, 18, 19, 28, 17, 33, 22, 11, 29, 9, 15, 30, 25, 37, 12, 38, 31, 32, 35, 52, 1, 41, 24, 50, 39, 49, 42, 61, 44, 36, 47, 34, 8, 64, 45, 53, 51, 55, 2, 56, 40, 75, 58, 43, 59, 68, 46, 54, 48, 57, 74, 80, 71, 60, 78, 62, 67, 73, 82, 87, 66, 76, 81, 70, 77, 63, 84, 93, 88, 69, 86, 90, 85, 99, 102, 79, 83, 89, 91, 94, 96, 112, 106, 92, 104, 100, 105, 97, 110, 65, 109, 107, 114, 113, 115, 123, 111, 120, 116, 121, 133, 124, 119, 101, 130, 139, 103, 118, 125, 138, 149, 117, 143, 108, 141, 127, 95, 128, 134, 136, 135, 145, 122, 132, 137, 126, 131, 146, 144, 98, 129, 140, 147, 148, 150, 72, 142]);
% time elapsed: 11.21 s
----------
%%%mzn-stat: initTime=0.067522055
%%%mzn-stat: objective=299
%%%mzn-stat: nodes=342497
%%%mzn-stat: restarts=0
%%%mzn-stat: peakDepth=3355
%%%mzn-stat: solveTime=349.382296698
%%%mzn-stat: variables=4230
%%%mzn-stat: propagators=14920
%%%mzn-stat: failures=281373
%%%mzn-stat: propagations=259341679
%%%mzn-stat: nogoods=281373
%%%mzn-stat: numAtomicConstraintsPropagated=0
%%%mzn-stat: circuitNumber11176PropagationsThatFoundConflict=105065
%%%mzn-stat: circuitNumber11176TotalFixedEdgesAtConflict=15114990
%%%mzn-stat: circuitNumber11176NumberOfConflicts=105065
%%%mzn-stat: circuitNumber11176PropagationsThatPruned=85017
%%%mzn-stat: circuitNumber11176PropagationsTotal=466589
%%%mzn-stat: AverageConflictSize=45.02567410519133
%%%mzn-stat: NumUnitNogoodsLearned=0
%%%mzn-stat: AverageLearnedNogoodLength=87.29970537329453
%%%mzn-stat: AverageBacktrackAmount=0
%%%mzn-stat: AverageLbd=60.53666840812729
%%%mzn-stat: 2AutonomousSearchNumBackupCalled=18907
%%%mzn-stat: 2AutonomousSearchNumPredicatesRemoved=0
%%%mzn-stat: 2AutonomousSearchNumCalls=18913
%%%mzn-stat: 2AutonomousSearchNumPredicatesAdded=11496
%%%mzn-stat: 2AutonomousSearchAverageSizeOfHeap=0.8472479247078729
%%%mzn-stat: 2AutonomousSearchNumAssignedPredicatesEncountered=16024
%%%mzn-stat-end
maxleg = 299;
succ = array1d(1..150,[21, 4, 6, 10, 13, 5, 3, 26, 7, 14, 23, 20, 16, 27, 18, 19, 28, 17, 33, 22, 11, 29, 9, 15, 30, 25, 37, 12, 38, 31, 32, 35, 52, 1, 41, 24, 50, 39, 49, 42, 61, 44, 36, 47, 34, 8, 64, 45, 53, 51, 55, 2, 56, 40, 75, 58, 43, 59, 68, 46, 54, 48, 57, 74, 80, 71, 60, 78, 62, 67, 73, 82, 87, 66, 76, 81, 70, 77, 63, 84, 93, 88, 69, 86, 90, 85, 99, 102, 79, 83, 89, 91, 94, 96, 112, 106, 92, 104, 100, 105, 97, 110, 65, 109, 107, 114, 113, 115, 123, 111, 120, 116, 121, 133, 127, 119, 125, 130, 128, 103, 118, 72, 138, 144, 136, 143, 129, 131, 142, 95, 140, 101, 149, 117, 134, 122, 132, 137, 126, 145, 139, 150, 98, 108, 135, 141, 146, 147, 124, 148]);
% time elapsed: 353.66 s
----------
%%%mzn-stat: initTime=0.067522055
%%%mzn-stat: objective=294
%%%mzn-stat: nodes=468204
%%%mzn-stat: restarts=1
%%%mzn-stat: peakDepth=3355
%%%mzn-stat: solveTime=436.206492845
%%%mzn-stat: variables=4230
%%%mzn-stat: propagators=14920
%%%mzn-stat: failures=385589
%%%mzn-stat: propagations=357533141
%%%mzn-stat: nogoods=385589
%%%mzn-stat: numAtomicConstraintsPropagated=0
%%%mzn-stat: circuitNumber11176PropagationsThatFoundConflict=130209
%%%mzn-stat: circuitNumber11176TotalFixedEdgesAtConflict=18538692
%%%mzn-stat: circuitNumber11176NumberOfConflicts=130209
%%%mzn-stat: circuitNumber11176PropagationsThatPruned=120863
%%%mzn-stat: circuitNumber11176PropagationsTotal=636233
%%%mzn-stat: AverageConflictSize=40.429402809727456
%%%mzn-stat: NumUnitNogoodsLearned=0
%%%mzn-stat: AverageLearnedNogoodLength=80.96839121447967
%%%mzn-stat: AverageBacktrackAmount=0
%%%mzn-stat: AverageLbd=53.36894984037408
%%%mzn-stat: 2AutonomousSearchNumBackupCalled=21938
%%%mzn-stat: 2AutonomousSearchNumPredicatesRemoved=0
%%%mzn-stat: 2AutonomousSearchNumCalls=22173
%%%mzn-stat: 2AutonomousSearchNumPredicatesAdded=15871
%%%mzn-stat: 2AutonomousSearchAverageSizeOfHeap=27.494565462499438
%%%mzn-stat: 2AutonomousSearchNumAssignedPredicatesEncountered=27402
%%%mzn-stat-end
maxleg = 294;
succ = array1d(1..150,[92, 4, 6, 10, 13, 5, 3, 26, 7, 14, 23, 20, 16, 27, 18, 19, 28, 17, 52, 22, 11, 29, 9, 15, 30, 25, 33, 12, 38, 31, 32, 35, 76, 1, 41, 24, 50, 37, 49, 42, 61, 44, 36, 47, 34, 8, 64, 45, 53, 51, 55, 81, 56, 40, 75, 58, 43, 59, 68, 46, 54, 48, 57, 74, 80, 71, 60, 78, 62, 67, 73, 82, 87, 66, 2, 106, 70, 77, 63, 84, 93, 88, 69, 86, 90, 85, 99, 102, 79, 83, 89, 91, 94, 96, 112, 39, 21, 104, 100, 105, 97, 110, 65, 109, 107, 114, 113, 115, 123, 111, 120, 116, 121, 133, 127, 119, 125, 130, 128, 103, 118, 72, 138, 144, 136, 143, 129, 131, 142, 95, 140, 101, 149, 117, 134, 122, 132, 137, 126, 145, 139, 150, 98, 108, 135, 141, 146, 147, 124, 148]);
% time elapsed: 440.50 s
----------
%%%mzn-stat: initTime=0.067522055
%%%mzn-stat: objective=288
%%%mzn-stat: nodes=573746
%%%mzn-stat: restarts=2
%%%mzn-stat: peakDepth=3355
%%%mzn-stat: solveTime=534.730147052
%%%mzn-stat: variables=4230
%%%mzn-stat: propagators=14920
%%%mzn-stat: failures=474281
%%%mzn-stat: propagations=439530045
%%%mzn-stat: nogoods=474281
%%%mzn-stat: numAtomicConstraintsPropagated=0
%%%mzn-stat: circuitNumber11176PropagationsThatFoundConflict=164545
%%%mzn-stat: circuitNumber11176TotalFixedEdgesAtConflict=23371472
%%%mzn-stat: circuitNumber11176NumberOfConflicts=164545
%%%mzn-stat: circuitNumber11176PropagationsThatPruned=154355
%%%mzn-stat: circuitNumber11176PropagationsTotal=800312
%%%mzn-stat: AverageConflictSize=41.23923159477187
%%%mzn-stat: NumUnitNogoodsLearned=0
%%%mzn-stat: AverageLearnedNogoodLength=79.83565860745001
%%%mzn-stat: AverageBacktrackAmount=0
%%%mzn-stat: AverageLbd=52.301707215764495
%%%mzn-stat: 2AutonomousSearchNumBackupCalled=24946
%%%mzn-stat: 2AutonomousSearchNumPredicatesRemoved=0
%%%mzn-stat: 2AutonomousSearchNumCalls=25450
%%%mzn-stat: 2AutonomousSearchNumPredicatesAdded=19053
%%%mzn-stat: 2AutonomousSearchAverageSizeOfHeap=61.05646365422397
%%%mzn-stat: 2AutonomousSearchNumAssignedPredicatesEncountered=41441
%%%mzn-stat-end
maxleg = 288;
succ = array1d(1..150,[92, 4, 6, 10, 13, 5, 82, 26, 3, 14, 23, 39, 7, 27, 18, 19, 28, 17, 52, 22, 11, 29, 9, 15, 30, 25, 33, 12, 38, 31, 32, 35, 76, 1, 41, 24, 50, 37, 49, 42, 61, 44, 36, 47, 34, 8, 64, 45, 53, 51, 55, 81, 56, 40, 75, 58, 43, 59, 68, 46, 54, 48, 57, 74, 80, 71, 60, 78, 62, 67, 73, 16, 87, 66, 2, 106, 70, 77, 63, 84, 93, 88, 69, 86, 90, 85, 99, 102, 79, 83, 89, 91, 94, 96, 112, 20, 21, 104, 100, 105, 97, 110, 65, 109, 107, 114, 113, 115, 123, 111, 120, 116, 121, 133, 127, 119, 125, 130, 128, 103, 118, 72, 138, 144, 136, 143, 129, 131, 142, 95, 140, 101, 149, 117, 134, 122, 132, 137, 126, 145, 139, 150, 98, 108, 135, 141, 146, 147, 124, 148]);
% time elapsed: 539.04 s
----------
%%%mzn-stat: initTime=0.067522055
%%%mzn-stat: objective=278
%%%mzn-stat: nodes=614735
%%%mzn-stat: restarts=2
%%%mzn-stat: peakDepth=3355
%%%mzn-stat: solveTime=559.269624323
%%%mzn-stat: variables=4230
%%%mzn-stat: propagators=14920
%%%mzn-stat: failures=505394
%%%mzn-stat: propagations=471142976
%%%mzn-stat: nogoods=505394
%%%mzn-stat: numAtomicConstraintsPropagated=0
%%%mzn-stat: circuitNumber11176PropagationsThatFoundConflict=168272
%%%mzn-stat: circuitNumber11176TotalFixedEdgesAtConflict=23882063
%%%mzn-stat: circuitNumber11176NumberOfConflicts=168272
%%%mzn-stat: circuitNumber11176PropagationsThatPruned=165029
%%%mzn-stat: circuitNumber11176PropagationsTotal=847859
%%%mzn-stat: AverageConflictSize=40.29575539084358
%%%mzn-stat: NumUnitNogoodsLearned=0
%%%mzn-stat: AverageLearnedNogoodLength=78.8409003668425
%%%mzn-stat: AverageBacktrackAmount=0
%%%mzn-stat: AverageLbd=51.02709173436962
%%%mzn-stat: 2AutonomousSearchNumBackupCalled=27923
%%%mzn-stat: 2AutonomousSearchNumPredicatesRemoved=0
%%%mzn-stat: 2AutonomousSearchNumCalls=28428
%%%mzn-stat: 2AutonomousSearchNumPredicatesAdded=22140
%%%mzn-stat: 2AutonomousSearchAverageSizeOfHeap=54.82858449416069
%%%mzn-stat: 2AutonomousSearchNumAssignedPredicatesEncountered=46221
%%%mzn-stat-end
maxleg = 278;
succ = array1d(1..150,[34, 4, 6, 10, 13, 5, 3, 26, 7, 14, 21, 22, 16, 27, 18, 19, 28, 17, 33, 29, 23, 20, 9, 15, 11, 25, 37, 12, 38, 8, 30, 31, 52, 24, 32, 43, 50, 39, 49, 42, 35, 44, 46, 47, 1, 48, 64, 45, 41, 51, 55, 2, 56, 40, 75, 58, 36, 59, 68, 57, 54, 60, 62, 74, 80, 61, 70, 78, 83, 77, 66, 82, 71, 87, 76, 81, 79, 67, 63, 53, 93, 88, 89, 65, 86, 84, 99, 102, 90, 85, 69, 91, 94, 96, 112, 106, 92, 104, 100, 105, 97, 110, 73, 109, 107, 103, 113, 115, 123, 111, 114, 116, 121, 120, 127, 119, 136, 130, 128, 149, 118, 125, 138, 144, 72, 143, 129, 131, 142, 95, 140, 101, 122, 117, 134, 133, 132, 137, 126, 145, 139, 150, 98, 108, 135, 141, 146, 147, 124, 148]);
% time elapsed: 563.59 s
----------
%%%mzn-stat: initTime=0.067522055
%%%mzn-stat: objective=277
%%%mzn-stat: nodes=618540
%%%mzn-stat: restarts=3
%%%mzn-stat: peakDepth=3355
%%%mzn-stat: solveTime=559.636141176
%%%mzn-stat: variables=4230
%%%mzn-stat: propagators=14920
%%%mzn-stat: failures=505622
%%%mzn-stat: propagations=471462244
%%%mzn-stat: nogoods=505622
%%%mzn-stat: numAtomicConstraintsPropagated=0
%%%mzn-stat: circuitNumber11176PropagationsThatFoundConflict=168398
%%%mzn-stat: circuitNumber11176TotalFixedEdgesAtConflict=23899672
%%%mzn-stat: circuitNumber11176NumberOfConflicts=168398
%%%mzn-stat: circuitNumber11176PropagationsThatPruned=165168
%%%mzn-stat: circuitNumber11176PropagationsTotal=848664
%%%mzn-stat: AverageConflictSize=40.30039238798945
%%%mzn-stat: NumUnitNogoodsLearned=0
%%%mzn-stat: AverageLearnedNogoodLength=78.83778989047154
%%%mzn-stat: AverageBacktrackAmount=0
%%%mzn-stat: AverageLbd=51.03019053759528
%%%mzn-stat: 2AutonomousSearchNumBackupCalled=30943
%%%mzn-stat: 2AutonomousSearchNumPredicatesRemoved=0
%%%mzn-stat: 2AutonomousSearchNumCalls=31746
%%%mzn-stat: 2AutonomousSearchNumPredicatesAdded=24813
%%%mzn-stat: 2AutonomousSearchAverageSizeOfHeap=82.42358092358093
%%%mzn-stat: 2AutonomousSearchNumAssignedPredicatesEncountered=55993
%%%mzn-stat-end
maxleg = 277;
succ = array1d(1..150,[34, 4, 6, 10, 13, 5, 73, 26, 7, 14, 21, 84, 16, 27, 18, 9, 28, 17, 33, 29, 23, 20, 3, 15, 11, 25, 37, 12, 38, 8, 30, 31, 52, 24, 32, 43, 50, 39, 49, 42, 35, 44, 46, 47, 1, 48, 64, 45, 41, 51, 55, 2, 56, 40, 75, 58, 36, 59, 68, 57, 54, 60, 62, 74, 80, 19, 70, 78, 83, 77, 61, 82, 66, 87, 76, 81, 79, 67, 63, 22, 93, 88, 89, 65, 86, 53, 99, 102, 90, 85, 69, 91, 94, 96, 112, 106, 92, 104, 100, 105, 97, 110, 71, 109, 107, 103, 113, 115, 123, 111, 114, 116, 121, 120, 127, 119, 136, 130, 128, 149, 118, 125, 138, 144, 72, 143, 129, 131, 142, 95, 140, 101, 122, 117, 134, 133, 132, 137, 126, 145, 139, 150, 98, 108, 135, 141, 146, 147, 124, 148]);
% time elapsed: 563.98 s
----------
%%%mzn-stat: initTime=0.067522055
%%%mzn-stat: objective=271
%%%mzn-stat: nodes=621672
%%%mzn-stat: restarts=3
%%%mzn-stat: peakDepth=3355
%%%mzn-stat: solveTime=559.652119811
%%%mzn-stat: variables=4230
%%%mzn-stat: propagators=14920
%%%mzn-stat: failures=505622
%%%mzn-stat: propagations=471490692
%%%mzn-stat: nogoods=505622
%%%mzn-stat: numAtomicConstraintsPropagated=0
%%%mzn-stat: circuitNumber11176PropagationsThatFoundConflict=168398
%%%mzn-stat: circuitNumber11176TotalFixedEdgesAtConflict=23899672
%%%mzn-stat: circuitNumber11176NumberOfConflicts=168398
%%%mzn-stat: circuitNumber11176PropagationsThatPruned=165173
%%%mzn-stat: circuitNumber11176PropagationsTotal=848797
%%%mzn-stat: AverageConflictSize=40.30039238798945
%%%mzn-stat: NumUnitNogoodsLearned=0
%%%mzn-stat: AverageLearnedNogoodLength=78.83778989047154
%%%mzn-stat: AverageBacktrackAmount=0
%%%mzn-stat: AverageLbd=51.03019053759528
%%%mzn-stat: 2AutonomousSearchNumBackupCalled=33946
%%%mzn-stat: 2AutonomousSearchNumPredicatesRemoved=0
%%%mzn-stat: 2AutonomousSearchNumCalls=34750
%%%mzn-stat: 2AutonomousSearchNumPredicatesAdded=24813
%%%mzn-stat: 2AutonomousSearchAverageSizeOfHeap=75.43899280575539
%%%mzn-stat: 2AutonomousSearchNumAssignedPredicatesEncountered=60879
%%%mzn-stat-end
maxleg = 271;
succ = array1d(1..150,[34, 4, 6, 10, 13, 5, 3, 26, 7, 14, 21, 28, 16, 27, 18, 19, 43, 17, 33, 22, 23, 29, 40, 15, 11, 25, 37, 49, 38, 8, 30, 31, 52, 24, 32, 46, 50, 12, 20, 9, 35, 44, 36, 47, 1, 48, 64, 57, 41, 51, 55, 2, 39, 42, 75, 53, 60, 56, 58, 62, 54, 63, 79, 74, 80, 61, 70, 59, 83, 77, 66, 82, 71, 87, 76, 81, 78, 68, 67, 84, 93, 88, 45, 86, 90, 85, 99, 102, 91, 89, 69, 97, 94, 96, 112, 106, 101, 104, 100, 105, 117, 110, 65, 109, 107, 73, 113, 115, 123, 111, 114, 116, 121, 103, 124, 119, 132, 130, 139, 142, 118, 72, 138, 149, 122, 143, 108, 141, 144, 95, 128, 134, 136, 135, 145, 125, 92, 137, 126, 131, 146, 127, 98, 120, 140, 147, 148, 150, 133, 129]);
% time elapsed: 564.00 s
----------
%%%mzn-stat: initTime=0.067522055
%%%mzn-stat: objective=268
%%%mzn-stat: nodes=625479
%%%mzn-stat: restarts=4
%%%mzn-stat: peakDepth=3355
%%%mzn-stat: solveTime=559.950943306
%%%mzn-stat: variables=4230
%%%mzn-stat: propagators=14920
%%%mzn-stat: failures=505841
%%%mzn-stat: propagations=471837252
%%%mzn-stat: nogoods=505841
%%%mzn-stat: numAtomicConstraintsPropagated=0
%%%mzn-stat: circuitNumber11176PropagationsThatFoundConflict=168480
%%%mzn-stat: circuitNumber11176TotalFixedEdgesAtConflict=23911504
%%%mzn-stat: circuitNumber11176NumberOfConflicts=168480
%%%mzn-stat: circuitNumber11176PropagationsThatPruned=165269
%%%mzn-stat: circuitNumber11176PropagationsTotal=849515
%%%mzn-stat: AverageConflictSize=40.29659715206952
%%%mzn-stat: NumUnitNogoodsLearned=0
%%%mzn-stat: AverageLearnedNogoodLength=78.83120585322266
%%%mzn-stat: AverageBacktrackAmount=0
%%%mzn-stat: AverageLbd=51.028362667320366
%%%mzn-stat: 2AutonomousSearchNumBackupCalled=36910
%%%mzn-stat: 2AutonomousSearchNumPredicatesRemoved=0
%%%mzn-stat: 2AutonomousSearchNumCalls=38050
%%%mzn-stat: 2AutonomousSearchNumPredicatesAdded=26959
%%%mzn-stat: 2AutonomousSearchAverageSizeOfHeap=99.32241787122207
%%%mzn-stat: 2AutonomousSearchNumAssignedPredicatesEncountered=70963
%%%mzn-stat-end
maxleg = 268;
succ = array1d(1..150,[34, 4, 6, 10, 13, 5, 3, 26, 7, 14, 21, 28, 16, 27, 18, 19, 43, 17, 33, 22, 23, 29, 40, 15, 11, 25, 37, 49, 38, 8, 30, 31, 52, 104, 32, 46, 50, 12, 20, 9, 35, 44, 36, 47, 1, 48, 64, 57, 41, 51, 55, 2, 39, 42, 75, 53, 60, 56, 58, 62, 54, 63, 79, 74, 80, 61, 70, 59, 83, 77, 66, 82, 71, 87, 76, 81, 78, 68, 67, 84, 93, 88, 24, 86, 90, 85, 99, 102, 91, 89, 69, 97, 94, 96, 112, 106, 101, 45, 100, 105, 117, 110, 65, 109, 107, 73, 113, 115, 123, 111, 114, 116, 121, 103, 124, 119, 132, 130, 139, 142, 118, 72, 138, 149, 122, 143, 108, 141, 144, 95, 128, 134, 136, 135, 145, 125, 92, 137, 126, 131, 146, 127, 98, 120, 140, 147, 148, 150, 133, 129]);
% time elapsed: 564.32 s
----------
%%%mzn-stat: initTime=0.067522055
%%%mzn-stat: objective=267
%%%mzn-stat: nodes=651929
%%%mzn-stat: restarts=5
%%%mzn-stat: peakDepth=3355
%%%mzn-stat: solveTime=584.399164598
%%%mzn-stat: variables=4230
%%%mzn-stat: propagators=14920
%%%mzn-stat: failures=521717
%%%mzn-stat: propagations=489958065
%%%mzn-stat: nogoods=521717
%%%mzn-stat: numAtomicConstraintsPropagated=0
%%%mzn-stat: circuitNumber11176PropagationsThatFoundConflict=170213
%%%mzn-stat: circuitNumber11176TotalFixedEdgesAtConflict=24155263
%%%mzn-stat: circuitNumber11176NumberOfConflicts=170213
%%%mzn-stat: circuitNumber11176PropagationsThatPruned=171210
%%%mzn-stat: circuitNumber11176PropagationsTotal=877739
%%%mzn-stat: AverageConflictSize=40.112587858935015
%%%mzn-stat: NumUnitNogoodsLearned=0
%%%mzn-stat: AverageLearnedNogoodLength=78.87485744186982
%%%mzn-stat: AverageBacktrackAmount=0
%%%mzn-stat: AverageLbd=51.1220335929249
%%%mzn-stat: 2AutonomousSearchNumBackupCalled=39897
%%%mzn-stat: 2AutonomousSearchNumPredicatesRemoved=0
%%%mzn-stat: 2AutonomousSearchNumCalls=41358
%%%mzn-stat: 2AutonomousSearchNumPredicatesAdded=30490
%%%mzn-stat: 2AutonomousSearchAverageSizeOfHeap=121.0189322501088
%%%mzn-stat: 2AutonomousSearchNumAssignedPredicatesEncountered=81451
%%%mzn-stat-end
maxleg = 267;
succ = array1d(1..150,[34, 4, 6, 10, 13, 5, 3, 26, 7, 14, 21, 28, 16, 27, 18, 19, 43, 17, 33, 22, 23, 29, 40, 15, 11, 25, 37, 49, 38, 8, 30, 31, 52, 104, 32, 46, 50, 12, 20, 9, 35, 44, 36, 47, 1, 48, 64, 57, 41, 51, 55, 2, 39, 42, 75, 53, 60, 56, 58, 62, 54, 63, 79, 74, 80, 61, 70, 59, 83, 77, 66, 82, 71, 87, 76, 81, 78, 68, 67, 84, 93, 88, 45, 86, 90, 85, 99, 102, 91, 98, 69, 97, 94, 96, 112, 106, 101, 24, 100, 105, 117, 110, 65, 109, 107, 73, 113, 115, 123, 111, 114, 116, 121, 103, 124, 119, 132, 130, 139, 142, 118, 72, 138, 149, 122, 143, 108, 141, 144, 95, 128, 134, 136, 135, 145, 125, 92, 137, 126, 131, 146, 127, 89, 120, 140, 147, 148, 150, 133, 129]);
% time elapsed: 588.78 s
----------
%%%mzn-stat: initTime=0.067522055
%%%mzn-stat: objective=266
%%%mzn-stat: nodes=655022
%%%mzn-stat: restarts=5
%%%mzn-stat: peakDepth=3355
%%%mzn-stat: solveTime=584.414661764
%%%mzn-stat: variables=4230
%%%mzn-stat: propagators=14920
%%%mzn-stat: failures=521717
%%%mzn-stat: propagations=489986385
%%%mzn-stat: nogoods=521717
%%%mzn-stat: numAtomicConstraintsPropagated=0
%%%mzn-stat: circuitNumber11176PropagationsThatFoundConflict=170213
%%%mzn-stat: circuitNumber11176TotalFixedEdgesAtConflict=24155263
%%%mzn-stat: circuitNumber11176NumberOfConflicts=170213
%%%mzn-stat: circuitNumber11176PropagationsThatPruned=171212
%%%mzn-stat: circuitNumber11176PropagationsTotal=877872
%%%mzn-stat: AverageConflictSize=40.112587858935015
%%%mzn-stat: NumUnitNogoodsLearned=0
%%%mzn-stat: AverageLearnedNogoodLength=78.87485744186982
%%%mzn-stat: AverageBacktrackAmount=0
%%%mzn-stat: AverageLbd=51.1220335929249
%%%mzn-stat: 2AutonomousSearchNumBackupCalled=42860
%%%mzn-stat: 2AutonomousSearchNumPredicatesRemoved=0
%%%mzn-stat: 2AutonomousSearchNumCalls=44322
%%%mzn-stat: 2AutonomousSearchNumPredicatesAdded=30490
%%%mzn-stat: 2AutonomousSearchAverageSizeOfHeap=113.04419926898606
%%%mzn-stat: 2AutonomousSearchNumAssignedPredicatesEncountered=86695
%%%mzn-stat-end
maxleg = 266;
succ = array1d(1..150,[34, 4, 6, 10, 13, 5, 3, 26, 7, 14, 21, 28, 16, 27, 18, 19, 43, 17, 33, 22, 23, 29, 40, 15, 11, 25, 37, 49, 38, 8, 30, 31, 52, 45, 32, 24, 50, 12, 20, 9, 35, 44, 46, 47, 48, 57, 64, 60, 41, 51, 55, 2, 39, 42, 75, 53, 63, 56, 58, 36, 54, 1, 79, 74, 80, 61, 70, 59, 62, 77, 66, 82, 71, 87, 76, 81, 78, 68, 67, 84, 93, 88, 69, 86, 90, 85, 99, 102, 83, 89, 92, 97, 94, 96, 112, 106, 101, 104, 100, 105, 117, 110, 65, 109, 107, 73, 113, 115, 123, 111, 114, 116, 121, 133, 124, 119, 136, 130, 128, 142, 118, 72, 91, 103, 122, 131, 108, 126, 144, 148, 143, 137, 149, 132, 134, 125, 138, 98, 95, 145, 139, 150, 140, 127, 135, 141, 146, 147, 120, 129]);
% time elapsed: 588.81 s
----------
%%%mzn-stat: initTime=0.067522055
%%%mzn-stat: objective=265
%%%mzn-stat: nodes=673287
%%%mzn-stat: restarts=6
%%%mzn-stat: peakDepth=3355
%%%mzn-stat: solveTime=590.350667151
%%%mzn-stat: variables=4230
%%%mzn-stat: propagators=14920
%%%mzn-stat: failures=529115
%%%mzn-stat: propagations=499459284
%%%mzn-stat: nogoods=529115
%%%mzn-stat: numAtomicConstraintsPropagated=0
%%%mzn-stat: circuitNumber11176PropagationsThatFoundConflict=170388
%%%mzn-stat: circuitNumber11176TotalFixedEdgesAtConflict=24178845
%%%mzn-stat: circuitNumber11176NumberOfConflicts=170388
%%%mzn-stat: circuitNumber11176PropagationsThatPruned=173300
%%%mzn-stat: circuitNumber11176PropagationsTotal=893379
%%%mzn-stat: AverageConflictSize=39.75389282103134
%%%mzn-stat: NumUnitNogoodsLearned=0
%%%mzn-stat: AverageLearnedNogoodLength=78.45226652051066
%%%mzn-stat: AverageBacktrackAmount=0
%%%mzn-stat: AverageLbd=50.82074785254623
%%%mzn-stat: 2AutonomousSearchNumBackupCalled=45862
%%%mzn-stat: 2AutonomousSearchNumPredicatesRemoved=0
%%%mzn-stat: 2AutonomousSearchNumCalls=47636
%%%mzn-stat: 2AutonomousSearchNumPredicatesAdded=33162
%%%mzn-stat: 2AutonomousSearchAverageSizeOfHeap=129.87883113611554
%%%mzn-stat: 2AutonomousSearchNumAssignedPredicatesEncountered=97381
%%%mzn-stat-end
maxleg = 265;
succ = array1d(1..150,[34, 115, 6, 10, 13, 5, 3, 26, 7, 14, 21, 28, 16, 27, 18, 19, 43, 17, 33, 22, 44, 29, 40, 15, 11, 25, 37, 49, 38, 8, 30, 31, 52, 45, 32, 24, 50, 12, 20, 9, 35, 23, 46, 47, 48, 57, 64, 60, 41, 51, 55, 2, 39, 42, 75, 53, 63, 56, 58, 36, 54, 1, 79, 74, 80, 61, 70, 59, 62, 77, 66, 82, 71, 87, 76, 81, 78, 68, 67, 84, 93, 88, 69, 86, 90, 85, 99, 102, 83, 89, 92, 97, 94, 96, 112, 106, 101, 104, 100, 105, 117, 110, 65, 109, 107, 73, 113, 4, 123, 111, 114, 116, 121, 133, 124, 119, 136, 130, 128, 142, 118, 72, 91, 103, 122, 131, 108, 126, 144, 148, 143, 137, 149, 132, 134, 125, 138, 98, 95, 145, 139, 150, 140, 127, 135, 141, 146, 147, 120, 129]);
% time elapsed: 594.76 s
----------
%%%mzn-stat: initTime=0.067522055
%%%mzn-stat: objective=262
%%%mzn-stat: nodes=676413
%%%mzn-stat: restarts=6
%%%mzn-stat: peakDepth=3355
%%%mzn-stat: solveTime=590.384475619
%%%mzn-stat: variables=4230
%%%mzn-stat: propagators=14920
%%%mzn-stat: failures=529140
%%%mzn-stat: propagations=499520953
%%%mzn-stat: nogoods=529140
%%%mzn-stat: numAtomicConstraintsPropagated=0
%%%mzn-stat: circuitNumber11176PropagationsThatFoundConflict=170389
%%%mzn-stat: circuitNumber11176TotalFixedEdgesAtConflict=24178978
%%%mzn-stat: circuitNumber11176NumberOfConflicts=170389
%%%mzn-stat: circuitNumber11176PropagationsThatPruned=173315
%%%mzn-stat: circuitNumber11176PropagationsTotal=893592
%%%mzn-stat: AverageConflictSize=39.75244547756737
%%%mzn-stat: NumUnitNogoodsLearned=0
%%%mzn-stat: AverageLearnedNogoodLength=78.45033072532789
%%%mzn-stat: AverageBacktrackAmount=0
%%%mzn-stat: AverageLbd=50.81925766337831
%%%mzn-stat: 2AutonomousSearchNumBackupCalled=48781
%%%mzn-stat: 2AutonomousSearchNumPredicatesRemoved=0
%%%mzn-stat: 2AutonomousSearchNumCalls=50556
%%%mzn-stat: 2AutonomousSearchNumPredicatesAdded=34374
%%%mzn-stat: 2AutonomousSearchAverageSizeOfHeap=122.48639132842789
%%%mzn-stat: 2AutonomousSearchNumAssignedPredicatesEncountered=102895
%%%mzn-stat-end
maxleg = 262;
succ = array1d(1..150,[34, 10, 6, 20, 13, 5, 3, 26, 40, 4, 7, 28, 16, 2, 18, 19, 43, 17, 27, 22, 11, 29, 21, 15, 30, 25, 14, 49, 38, 31, 32, 35, 52, 45, 41, 24, 50, 12, 53, 23, 61, 9, 46, 42, 48, 8, 44, 57, 39, 51, 55, 37, 56, 64, 75, 58, 36, 59, 68, 1, 54, 60, 62, 47, 80, 33, 70, 78, 83, 77, 66, 82, 71, 87, 76, 81, 79, 67, 89, 84, 93, 88, 63, 86, 90, 85, 73, 102, 91, 98, 92, 97, 94, 96, 112, 65, 101, 104, 74, 99, 117, 110, 106, 109, 100, 114, 105, 115, 123, 111, 120, 116, 107, 121, 124, 119, 134, 130, 128, 103, 113, 72, 138, 149, 122, 139, 108, 141, 142, 148, 126, 69, 136, 135, 145, 125, 132, 137, 95, 143, 146, 144, 131, 127, 140, 147, 118, 150, 133, 129]);
% time elapsed: 594.81 s
----------
%%%mzn-stat: initTime=0.067522055
%%%mzn-stat: objective=260
%%%mzn-stat: nodes=679472
%%%mzn-stat: restarts=6
%%%mzn-stat: peakDepth=3355
%%%mzn-stat: solveTime=590.398794237
%%%mzn-stat: variables=4230
%%%mzn-stat: propagators=14920
%%%mzn-stat: failures=529140
%%%mzn-stat: propagations=499549447
%%%mzn-stat: nogoods=529140
%%%mzn-stat: numAtomicConstraintsPropagated=0
%%%mzn-stat: circuitNumber11176PropagationsThatFoundConflict=170389
%%%mzn-stat: circuitNumber11176TotalFixedEdgesAtConflict=24178978
%%%mzn-stat: circuitNumber11176NumberOfConflicts=170389
%%%mzn-stat: circuitNumber11176PropagationsThatPruned=173319
%%%mzn-stat: circuitNumber11176PropagationsTotal=893727
%%%mzn-stat: AverageConflictSize=39.75244547756737
%%%mzn-stat: NumUnitNogoodsLearned=0
%%%mzn-stat: AverageLearnedNogoodLength=78.45033072532789
%%%mzn-stat: AverageBacktrackAmount=0
%%%mzn-stat: AverageLbd=50.81925766337831
%%%mzn-stat: 2AutonomousSearchNumBackupCalled=51708
%%%mzn-stat: 2AutonomousSearchNumPredicatesRemoved=0
%%%mzn-stat: 2AutonomousSearchNumCalls=53484
%%%mzn-stat: 2AutonomousSearchNumPredicatesAdded=34374
%%%mzn-stat: 2AutonomousSearchAverageSizeOfHeap=115.88392790367213
%%%mzn-stat: 2AutonomousSearchNumAssignedPredicatesEncountered=108409
%%%mzn-stat-end
maxleg = 260;
succ = array1d(1..150,[34, 10, 6, 20, 13, 5, 3, 26, 40, 4, 7, 28, 16, 2, 18, 19, 43, 17, 27, 22, 11, 29, 21, 15, 30, 25, 14, 49, 38, 31, 32, 35, 52, 45, 41, 24, 50, 12, 53, 23, 61, 9, 46, 42, 48, 8, 44, 57, 39, 51, 55, 37, 56, 64, 75, 58, 36, 59, 68, 62, 54, 1, 60, 47, 80, 33, 70, 78, 83, 77, 66, 82, 71, 87, 76, 81, 79, 67, 89, 84, 93, 88, 63, 86, 90, 85, 73, 102, 91, 98, 92, 97, 94, 96, 112, 65, 101, 104, 74, 99, 117, 110, 106, 109, 100, 114, 105, 115, 123, 111, 120, 116, 107, 121, 124, 119, 134, 130, 128, 103, 113, 72, 138, 149, 122, 139, 108, 141, 142, 148, 126, 69, 136, 135, 145, 125, 132, 137, 95, 143, 146, 144, 131, 127, 140, 147, 118, 150, 133, 129]);
% time elapsed: 594.84 s
----------
%%%mzn-stat: initTime=0.067522055
%%%mzn-stat: objective=259
%%%mzn-stat: nodes=690864
%%%mzn-stat: restarts=7
%%%mzn-stat: peakDepth=3355
%%%mzn-stat: solveTime=596.799975559
%%%mzn-stat: variables=4230
%%%mzn-stat: propagators=14920
%%%mzn-stat: failures=533983
%%%mzn-stat: propagations=506010728
%%%mzn-stat: nogoods=533983
%%%mzn-stat: numAtomicConstraintsPropagated=0
%%%mzn-stat: circuitNumber11176PropagationsThatFoundConflict=170823
%%%mzn-stat: circuitNumber11176TotalFixedEdgesAtConflict=24238453
%%%mzn-stat: circuitNumber11176NumberOfConflicts=170823
%%%mzn-stat: circuitNumber11176PropagationsThatPruned=174694
%%%mzn-stat: circuitNumber11176PropagationsTotal=903048
%%%mzn-stat: AverageConflictSize=39.58128442291234
%%%mzn-stat: NumUnitNogoodsLearned=0
%%%mzn-stat: AverageLearnedNogoodLength=78.3744445047876
%%%mzn-stat: AverageBacktrackAmount=0
%%%mzn-stat: AverageLbd=50.75316629930166
%%%mzn-stat: 2AutonomousSearchNumBackupCalled=54614
%%%mzn-stat: 2AutonomousSearchNumPredicatesRemoved=0
%%%mzn-stat: 2AutonomousSearchNumCalls=56769
%%%mzn-stat: 2AutonomousSearchNumPredicatesAdded=39257
%%%mzn-stat: 2AutonomousSearchAverageSizeOfHeap=135.45387447374446
%%%mzn-stat: 2AutonomousSearchNumAssignedPredicatesEncountered=126529
%%%mzn-stat-end
maxleg = 259;
succ = array1d(1..150,[34, 10, 6, 20, 13, 5, 3, 26, 40, 4, 7, 28, 16, 2, 18, 19, 43, 17, 27, 22, 11, 29, 21, 15, 30, 25, 14, 49, 38, 31, 32, 35, 52, 45, 41, 24, 50, 12, 53, 23, 61, 9, 46, 42, 48, 8, 44, 57, 39, 51, 55, 37, 56, 64, 75, 58, 36, 59, 68, 62, 54, 1, 60, 47, 80, 33, 70, 78, 83, 77, 66, 82, 71, 87, 76, 81, 79, 67, 98, 84, 93, 88, 63, 86, 90, 85, 73, 102, 91, 137, 92, 97, 94, 96, 112, 65, 101, 104, 74, 99, 117, 110, 106, 109, 100, 114, 105, 115, 123, 111, 120, 116, 107, 121, 124, 119, 134, 130, 128, 103, 113, 72, 138, 149, 122, 139, 108, 141, 142, 148, 126, 69, 136, 135, 145, 125, 132, 89, 95, 143, 146, 144, 131, 127, 140, 147, 118, 150, 133, 129]);
% time elapsed: 601.26 s
----------
%%%mzn-stat: initTime=0.067522055
%%%mzn-stat: objective=252
%%%mzn-stat: nodes=694971
%%%mzn-stat: restarts=7
%%%mzn-stat: peakDepth=3355
%%%mzn-stat: solveTime=597.462293172
%%%mzn-stat: variables=4230
%%%mzn-stat: propagators=14920
%%%mzn-stat: failures=534636
%%%mzn-stat: propagations=506888953
%%%mzn-stat: nogoods=534636
%%%mzn-stat: numAtomicConstraintsPropagated=0
%%%mzn-stat: circuitNumber11176PropagationsThatFoundConflict=170885
%%%mzn-stat: circuitNumber11176TotalFixedEdgesAtConflict=24246862
%%%mzn-stat: circuitNumber11176NumberOfConflicts=170885
%%%mzn-stat: circuitNumber11176PropagationsThatPruned=175018
%%%mzn-stat: circuitNumber11176PropagationsTotal=904667
%%%mzn-stat: AverageConflictSize=39.565070440449205
%%%mzn-stat: NumUnitNogoodsLearned=0
%%%mzn-stat: AverageLearnedNogoodLength=78.34529100172828
%%%mzn-stat: AverageBacktrackAmount=0
%%%mzn-stat: AverageLbd=50.72741828084903
%%%mzn-stat: 2AutonomousSearchNumBackupCalled=57463
%%%mzn-stat: 2AutonomousSearchNumPredicatesRemoved=0
%%%mzn-stat: 2AutonomousSearchNumCalls=59619
%%%mzn-stat: 2AutonomousSearchNumPredicatesAdded=42025
%%%mzn-stat: 2AutonomousSearchAverageSizeOfHeap=129.09419815830523
%%%mzn-stat: 2AutonomousSearchNumAssignedPredicatesEncountered=133415
%%%mzn-stat-end
maxleg = 252;
succ = array1d(1..150,[34, 10, 6, 37, 13, 5, 3, 26, 40, 4, 7, 28, 16, 2, 18, 19, 43, 17, 27, 22, 11, 29, 21, 15, 30, 25, 14, 49, 38, 31, 32, 35, 52, 45, 41, 24, 50, 39, 12, 23, 20, 9, 46, 42, 48, 8, 44, 57, 53, 51, 55, 71, 56, 61, 33, 58, 36, 59, 68, 62, 64, 1, 60, 47, 80, 73, 70, 78, 54, 77, 66, 82, 87, 99, 76, 81, 79, 67, 83, 84, 93, 88, 69, 86, 90, 85, 74, 102, 63, 89, 92, 97, 94, 96, 112, 65, 101, 104, 100, 105, 117, 110, 106, 109, 107, 114, 113, 75, 123, 111, 120, 116, 121, 133, 108, 119, 136, 130, 128, 142, 118, 72, 145, 127, 122, 131, 144, 126, 150, 148, 143, 91, 149, 132, 134, 125, 138, 98, 95, 137, 139, 129, 140, 115, 135, 141, 146, 147, 124, 103]);
% time elapsed: 601.94 s
----------
%%%mzn-stat: initTime=0.067522055
%%%mzn-stat: objective=252
%%%mzn-stat: nodes=3056836
%%%mzn-stat: restarts=7
%%%mzn-stat: peakDepth=3355
%%%mzn-stat: solveTime=1795.940962762
%%%mzn-stat: variables=4230
%%%mzn-stat: propagators=14920
%%%mzn-stat: failures=1755448
%%%mzn-stat: propagations=1967370954
%%%mzn-stat: nogoods=1755448
%%%mzn-stat: numAtomicConstraintsPropagated=0
%%%mzn-stat: circuitNumber11176PropagationsThatFoundConflict=190545
%%%mzn-stat: circuitNumber11176TotalFixedEdgesAtConflict=26870373
%%%mzn-stat: circuitNumber11176NumberOfConflicts=190545
%%%mzn-stat: circuitNumber11176PropagationsThatPruned=419228
%%%mzn-stat: circuitNumber11176PropagationsTotal=3283548
%%%mzn-stat: AverageConflictSize=32.2245626187731
%%%mzn-stat: NumUnitNogoodsLearned=0
%%%mzn-stat: AverageLearnedNogoodLength=72.76391781471169
%%%mzn-stat: AverageBacktrackAmount=0
%%%mzn-stat: AverageLbd=32.17410313492624
%%%mzn-stat: 2AutonomousSearchNumBackupCalled=57463
%%%mzn-stat: 2AutonomousSearchNumPredicatesRemoved=0
%%%mzn-stat: 2AutonomousSearchNumCalls=59619
%%%mzn-stat: 2AutonomousSearchNumPredicatesAdded=46160
%%%mzn-stat: 2AutonomousSearchAverageSizeOfHeap=129.09419815830523
%%%mzn-stat: 2AutonomousSearchNumAssignedPredicatesEncountered=133415
%%%mzn-stat-end
